(set-logic HORN)
(declare-fun invariant (Real Real Real Real Real Real Real Real Real Real Real Real Real Real Real Real Real Real Real Real Real Real Real Real Real Real Real Real Real Real Real Real Real Real Real Real Real Real Real Real Real Real Real Real Real Real Real Real Real Real Real Real Real Real Real Real Bool Bool Bool Bool Bool Bool Bool Bool Bool Bool Bool Real Real Real Real Real Real Real) Bool)

;; Initial state
(assert
  (forall ((state.cx!0!0 Real) (state.cx!0!1 Real) (state.cx!0!2 Real) (state.cx!0!3 Real) (state.cx!0!4 Real) (state.cx!0!5 Real) (state.cx!0!6 Real) (state.cx!1!0 Real) (state.cx!1!1 Real) (state.cx!1!2 Real) (state.cx!1!3 Real) (state.cx!1!4 Real) (state.cx!1!5 Real) (state.cx!1!6 Real) (state.cx!2!0 Real) (state.cx!2!1 Real) (state.cx!2!2 Real) (state.cx!2!3 Real) (state.cx!2!4 Real) (state.cx!2!5 Real) (state.cx!2!6 Real) (state.cx!3!0 Real) (state.cx!3!1 Real) (state.cx!3!2 Real) (state.cx!3!3 Real) (state.cx!3!4 Real) (state.cx!3!5 Real) (state.cx!3!6 Real) (state.cy!0!0 Real) (state.cy!0!1 Real) (state.cy!0!2 Real) (state.cy!0!3 Real) (state.cy!0!4 Real) (state.cy!0!5 Real) (state.cy!0!6 Real) (state.cy!1!0 Real) (state.cy!1!1 Real) (state.cy!1!2 Real) (state.cy!1!3 Real) (state.cy!1!4 Real) (state.cy!1!5 Real) (state.cy!1!6 Real) (state.cy!2!0 Real) (state.cy!2!1 Real) (state.cy!2!2 Real) (state.cy!2!3 Real) (state.cy!2!4 Real) (state.cy!2!5 Real) (state.cy!2!6 Real) (state.cy!3!0 Real) (state.cy!3!1 Real) (state.cy!3!2 Real) (state.cy!3!3 Real) (state.cy!3!4 Real) (state.cy!3!5 Real) (state.cy!3!6 Real) (state.good_p!0 Bool) (state.good_p!1 Bool) (state.good_p!2 Bool) (state.good_p!3 Bool) (state.good_r!0 Bool) (state.good_r!1 Bool) (state.good_r!2 Bool) (state.good_r!3 Bool) (state.good_r!4 Bool) (state.good_r!5 Bool) (state.good_r!6 Bool) (state.v!0 Real) (state.v!1 Real) (state.v!2 Real) (state.v!3 Real) (state.round Real) (state.source Real) (state.val Real))
    (=> (let ((l0 (= |state.round| 0))) (let ((l1 (= |state.cx!0!0| 0))) (let ((l2 (= |state.cx!0!1| 0))) (let ((l3 (= |state.cx!0!2| 0))) (let ((l4 (= |state.cx!0!3| 0))) (let ((l5 (= |state.cx!0!4| 0))) (let ((l6 (= |state.cx!0!5| 0))) (let ((l7 (= |state.cx!0!6| 0))) (let ((l8 (= |state.cx!1!0| 0))) (let ((l9 (= |state.cx!1!1| 0))) (let ((l10 (= |state.cx!1!2| 0))) (let ((l11 (= |state.cx!1!3| 0))) (let ((l12 (= |state.cx!1!4| 0))) (let ((l13 (= |state.cx!1!5| 0))) (let ((l14 (= |state.cx!1!6| 0))) (let ((l15 (= |state.cx!2!0| 0))) (let ((l16 (= |state.cx!2!1| 0))) (let ((l17 (= |state.cx!2!2| 0))) (let ((l18 (= |state.cx!2!3| 0))) (let ((l19 (= |state.cx!2!4| 0))) (let ((l20 (= |state.cx!2!5| 0))) (let ((l21 (= |state.cx!2!6| 0))) (let ((l22 (= |state.cx!3!0| 0))) (let ((l23 (= |state.cx!3!1| 0))) (let ((l24 (= |state.cx!3!2| 0))) (let ((l25 (= |state.cx!3!3| 0))) (let ((l26 (= |state.cx!3!4| 0))) (let ((l27 (= |state.cx!3!5| 0))) (let ((l28 (= |state.cx!3!6| 0))) (let ((l29 (= |state.cy!0!0| 0))) (let ((l30 (= |state.cy!0!1| 0))) (let ((l31 (= |state.cy!0!2| 0))) (let ((l32 (= |state.cy!0!3| 0))) (let ((l33 (= |state.cy!0!4| 0))) (let ((l34 (= |state.cy!0!5| 0))) (let ((l35 (= |state.cy!0!6| 0))) (let ((l36 (= |state.cy!1!0| 0))) (let ((l37 (= |state.cy!1!1| 0))) (let ((l38 (= |state.cy!1!2| 0))) (let ((l39 (= |state.cy!1!3| 0))) (let ((l40 (= |state.cy!1!4| 0))) (let ((l41 (= |state.cy!1!5| 0))) (let ((l42 (= |state.cy!1!6| 0))) (let ((l43 (= |state.cy!2!0| 0))) (let ((l44 (= |state.cy!2!1| 0))) (let ((l45 (= |state.cy!2!2| 0))) (let ((l46 (= |state.cy!2!3| 0))) (let ((l47 (= |state.cy!2!4| 0))) (let ((l48 (= |state.cy!2!5| 0))) (let ((l49 (= |state.cy!2!6| 0))) (let ((l50 (= |state.cy!3!0| 0))) (let ((l51 (= |state.cy!3!1| 0))) (let ((l52 (= |state.cy!3!2| 0))) (let ((l53 (= |state.cy!3!3| 0))) (let ((l54 (= |state.cy!3!4| 0))) (let ((l55 (= |state.cy!3!5| 0))) (let ((l56 (= |state.cy!3!6| 0))) (let ((l57 (= |state.source| 1))) (let ((l58 (= |state.source| 2))) (let ((l59 (= |state.source| 3))) (let ((l60 (= |state.source| 4))) (let ((l61 (or l57 l58 l59 l60))) (let ((l62 (= |state.val| 0))) (let ((l63 (not l62))) (let ((l64 (and |state.good_p!0| |state.good_p!1| |state.good_p!2| |state.good_p!3|))) (let ((l65 (not |state.good_r!0|))) (let ((l66 (and l65 |state.good_r!1| |state.good_r!2| |state.good_r!3| |state.good_r!4| |state.good_r!5| |state.good_r!6|))) (let ((l67 (not |state.good_r!1|))) (let ((l68 (and l67 |state.good_r!0| |state.good_r!2| |state.good_r!3| |state.good_r!4| |state.good_r!5| |state.good_r!6|))) (let ((l69 (not |state.good_r!2|))) (let ((l70 (and l69 |state.good_r!0| |state.good_r!1| |state.good_r!3| |state.good_r!4| |state.good_r!5| |state.good_r!6|))) (let ((l71 (not |state.good_r!3|))) (let ((l72 (and l71 |state.good_r!0| |state.good_r!1| |state.good_r!2| |state.good_r!4| |state.good_r!5| |state.good_r!6|))) (let ((l73 (not |state.good_r!4|))) (let ((l74 (and l73 |state.good_r!0| |state.good_r!1| |state.good_r!2| |state.good_r!3| |state.good_r!5| |state.good_r!6|))) (let ((l75 (not |state.good_r!5|))) (let ((l76 (and l75 |state.good_r!0| |state.good_r!1| |state.good_r!2| |state.good_r!3| |state.good_r!4| |state.good_r!6|))) (let ((l77 (not |state.good_r!6|))) (let ((l78 (and l77 |state.good_r!0| |state.good_r!1| |state.good_r!2| |state.good_r!3| |state.good_r!4| |state.good_r!5|))) (let ((l79 (or l66 l68 l70 l72 l74 l76 l78))) (let ((l80 (and l0 l1 l2 l3 l4 l5 l6 l7 l8 l9 l10 l11 l12 l13 l14 l15 l16 l17 l18 l19 l20 l21 l22 l23 l24 l25 l26 l27 l28 l29 l30 l31 l32 l33 l34 l35 l36 l37 l38 l39 l40 l41 l42 l43 l44 l45 l46 l47 l48 l49 l50 l51 l52 l53 l54 l55 l56 l61 l63 l64 l79))) l80)))))))))))))))))))))))))))))))))))))))))))))))))))))))))))))))))))))))))))))))))
        (invariant state.cx!0!0 state.cx!0!1 state.cx!0!2 state.cx!0!3 state.cx!0!4 state.cx!0!5 state.cx!0!6 state.cx!1!0 state.cx!1!1 state.cx!1!2 state.cx!1!3 state.cx!1!4 state.cx!1!5 state.cx!1!6 state.cx!2!0 state.cx!2!1 state.cx!2!2 state.cx!2!3 state.cx!2!4 state.cx!2!5 state.cx!2!6 state.cx!3!0 state.cx!3!1 state.cx!3!2 state.cx!3!3 state.cx!3!4 state.cx!3!5 state.cx!3!6 state.cy!0!0 state.cy!0!1 state.cy!0!2 state.cy!0!3 state.cy!0!4 state.cy!0!5 state.cy!0!6 state.cy!1!0 state.cy!1!1 state.cy!1!2 state.cy!1!3 state.cy!1!4 state.cy!1!5 state.cy!1!6 state.cy!2!0 state.cy!2!1 state.cy!2!2 state.cy!2!3 state.cy!2!4 state.cy!2!5 state.cy!2!6 state.cy!3!0 state.cy!3!1 state.cy!3!2 state.cy!3!3 state.cy!3!4 state.cy!3!5 state.cy!3!6 state.good_p!0 state.good_p!1 state.good_p!2 state.good_p!3 state.good_r!0 state.good_r!1 state.good_r!2 state.good_r!3 state.good_r!4 state.good_r!5 state.good_r!6 state.v!0 state.v!1 state.v!2 state.v!3 state.round state.source state.val))
  )
)

;; Transition relation
(assert
  (forall ((state.cx!0!0 Real) (next.cx!0!0 Real) (state.cx!0!1 Real) (next.cx!0!1 Real) (state.cx!0!2 Real) (next.cx!0!2 Real) (state.cx!0!3 Real) (next.cx!0!3 Real) (state.cx!0!4 Real) (next.cx!0!4 Real) (state.cx!0!5 Real) (next.cx!0!5 Real) (state.cx!0!6 Real) (next.cx!0!6 Real) (state.cx!1!0 Real) (next.cx!1!0 Real) (state.cx!1!1 Real) (next.cx!1!1 Real) (state.cx!1!2 Real) (next.cx!1!2 Real) (state.cx!1!3 Real) (next.cx!1!3 Real) (state.cx!1!4 Real) (next.cx!1!4 Real) (state.cx!1!5 Real) (next.cx!1!5 Real) (state.cx!1!6 Real) (next.cx!1!6 Real) (state.cx!2!0 Real) (next.cx!2!0 Real) (state.cx!2!1 Real) (next.cx!2!1 Real) (state.cx!2!2 Real) (next.cx!2!2 Real) (state.cx!2!3 Real) (next.cx!2!3 Real) (state.cx!2!4 Real) (next.cx!2!4 Real) (state.cx!2!5 Real) (next.cx!2!5 Real) (state.cx!2!6 Real) (next.cx!2!6 Real) (state.cx!3!0 Real) (next.cx!3!0 Real) (state.cx!3!1 Real) (next.cx!3!1 Real) (state.cx!3!2 Real) (next.cx!3!2 Real) (state.cx!3!3 Real) (next.cx!3!3 Real) (state.cx!3!4 Real) (next.cx!3!4 Real) (state.cx!3!5 Real) (next.cx!3!5 Real) (state.cx!3!6 Real) (next.cx!3!6 Real) (state.cy!0!0 Real) (next.cy!0!0 Real) (state.cy!0!1 Real) (next.cy!0!1 Real) (state.cy!0!2 Real) (next.cy!0!2 Real) (state.cy!0!3 Real) (next.cy!0!3 Real) (state.cy!0!4 Real) (next.cy!0!4 Real) (state.cy!0!5 Real) (next.cy!0!5 Real) (state.cy!0!6 Real) (next.cy!0!6 Real) (state.cy!1!0 Real) (next.cy!1!0 Real) (state.cy!1!1 Real) (next.cy!1!1 Real) (state.cy!1!2 Real) (next.cy!1!2 Real) (state.cy!1!3 Real) (next.cy!1!3 Real) (state.cy!1!4 Real) (next.cy!1!4 Real) (state.cy!1!5 Real) (next.cy!1!5 Real) (state.cy!1!6 Real) (next.cy!1!6 Real) (state.cy!2!0 Real) (next.cy!2!0 Real) (state.cy!2!1 Real) (next.cy!2!1 Real) (state.cy!2!2 Real) (next.cy!2!2 Real) (state.cy!2!3 Real) (next.cy!2!3 Real) (state.cy!2!4 Real) (next.cy!2!4 Real) (state.cy!2!5 Real) (next.cy!2!5 Real) (state.cy!2!6 Real) (next.cy!2!6 Real) (state.cy!3!0 Real) (next.cy!3!0 Real) (state.cy!3!1 Real) (next.cy!3!1 Real) (state.cy!3!2 Real) (next.cy!3!2 Real) (state.cy!3!3 Real) (next.cy!3!3 Real) (state.cy!3!4 Real) (next.cy!3!4 Real) (state.cy!3!5 Real) (next.cy!3!5 Real) (state.cy!3!6 Real) (next.cy!3!6 Real) (state.good_p!0 Bool) (next.good_p!0 Bool) (state.good_p!1 Bool) (next.good_p!1 Bool) (state.good_p!2 Bool) (next.good_p!2 Bool) (state.good_p!3 Bool) (next.good_p!3 Bool) (state.good_r!0 Bool) (next.good_r!0 Bool) (state.good_r!1 Bool) (next.good_r!1 Bool) (state.good_r!2 Bool) (next.good_r!2 Bool) (state.good_r!3 Bool) (next.good_r!3 Bool) (state.good_r!4 Bool) (next.good_r!4 Bool) (state.good_r!5 Bool) (next.good_r!5 Bool) (state.good_r!6 Bool) (next.good_r!6 Bool) (state.v!0 Real) (next.v!0 Real) (state.v!1 Real) (next.v!1 Real) (state.v!2 Real) (next.v!2 Real) (state.v!3 Real) (next.v!3 Real) (state.round Real) (next.round Real) (state.source Real) (next.source Real) (state.val Real) (next.val Real))
    (=> (and (invariant state.cx!0!0 state.cx!0!1 state.cx!0!2 state.cx!0!3 state.cx!0!4 state.cx!0!5 state.cx!0!6 state.cx!1!0 state.cx!1!1 state.cx!1!2 state.cx!1!3 state.cx!1!4 state.cx!1!5 state.cx!1!6 state.cx!2!0 state.cx!2!1 state.cx!2!2 state.cx!2!3 state.cx!2!4 state.cx!2!5 state.cx!2!6 state.cx!3!0 state.cx!3!1 state.cx!3!2 state.cx!3!3 state.cx!3!4 state.cx!3!5 state.cx!3!6 state.cy!0!0 state.cy!0!1 state.cy!0!2 state.cy!0!3 state.cy!0!4 state.cy!0!5 state.cy!0!6 state.cy!1!0 state.cy!1!1 state.cy!1!2 state.cy!1!3 state.cy!1!4 state.cy!1!5 state.cy!1!6 state.cy!2!0 state.cy!2!1 state.cy!2!2 state.cy!2!3 state.cy!2!4 state.cy!2!5 state.cy!2!6 state.cy!3!0 state.cy!3!1 state.cy!3!2 state.cy!3!3 state.cy!3!4 state.cy!3!5 state.cy!3!6 state.good_p!0 state.good_p!1 state.good_p!2 state.good_p!3 state.good_r!0 state.good_r!1 state.good_r!2 state.good_r!3 state.good_r!4 state.good_r!5 state.good_r!6 state.v!0 state.v!1 state.v!2 state.v!3 state.round state.source state.val)
             (let ((l0 (= |next.source| |state.source|))) (let ((l1 (= |next.val| |state.val|))) (let ((l2 (= |state.round| 0))) (let ((l3 (not |state.good_p!0|))) (let ((l4 (= 1 |state.source|))) (let ((l5 (not l4))) (let ((l6 (= |next.cx!0!0| |state.val|))) (let ((l7 (= |next.cx!0!1| |state.val|))) (let ((l8 (= |next.cx!0!2| |state.val|))) (let ((l9 (= |next.cx!0!3| |state.val|))) (let ((l10 (= |next.cx!0!4| |state.val|))) (let ((l11 (= |next.cx!0!5| |state.val|))) (let ((l12 (= |next.cx!0!6| |state.val|))) (let ((l13 (and l6 l7 l8 l9 l10 l11 l12))) (let ((l14 (or l3 l5 l13))) (let ((l15 (not |state.good_p!1|))) (let ((l16 (= 2 |state.source|))) (let ((l17 (not l16))) (let ((l18 (= |next.cx!1!0| |state.val|))) (let ((l19 (= |next.cx!1!1| |state.val|))) (let ((l20 (= |next.cx!1!2| |state.val|))) (let ((l21 (= |next.cx!1!3| |state.val|))) (let ((l22 (= |next.cx!1!4| |state.val|))) (let ((l23 (= |next.cx!1!5| |state.val|))) (let ((l24 (= |next.cx!1!6| |state.val|))) (let ((l25 (and l18 l19 l20 l21 l22 l23 l24))) (let ((l26 (or l15 l17 l25))) (let ((l27 (not |state.good_p!2|))) (let ((l28 (= 3 |state.source|))) (let ((l29 (not l28))) (let ((l30 (= |next.cx!2!0| |state.val|))) (let ((l31 (= |next.cx!2!1| |state.val|))) (let ((l32 (= |next.cx!2!2| |state.val|))) (let ((l33 (= |next.cx!2!3| |state.val|))) (let ((l34 (= |next.cx!2!4| |state.val|))) (let ((l35 (= |next.cx!2!5| |state.val|))) (let ((l36 (= |next.cx!2!6| |state.val|))) (let ((l37 (and l30 l31 l32 l33 l34 l35 l36))) (let ((l38 (or l27 l29 l37))) (let ((l39 (not |state.good_p!3|))) (let ((l40 (= 4 |state.source|))) (let ((l41 (not l40))) (let ((l42 (= |next.cx!3!0| |state.val|))) (let ((l43 (= |next.cx!3!1| |state.val|))) (let ((l44 (= |next.cx!3!2| |state.val|))) (let ((l45 (= |next.cx!3!3| |state.val|))) (let ((l46 (= |next.cx!3!4| |state.val|))) (let ((l47 (= |next.cx!3!5| |state.val|))) (let ((l48 (= |next.cx!3!6| |state.val|))) (let ((l49 (and l42 l43 l44 l45 l46 l47 l48))) (let ((l50 (or l39 l41 l49))) (let ((l51 (= |next.cx!0!0| 0))) (let ((l52 (= |next.cx!0!1| 0))) (let ((l53 (= |next.cx!0!2| 0))) (let ((l54 (= |next.cx!0!3| 0))) (let ((l55 (= |next.cx!0!4| 0))) (let ((l56 (= |next.cx!0!5| 0))) (let ((l57 (= |next.cx!0!6| 0))) (let ((l58 (and l51 l52 l53 l54 l55 l56 l57))) (let ((l59 (or l3 l4 l58))) (let ((l60 (= |next.cx!1!0| 0))) (let ((l61 (= |next.cx!1!1| 0))) (let ((l62 (= |next.cx!1!2| 0))) (let ((l63 (= |next.cx!1!3| 0))) (let ((l64 (= |next.cx!1!4| 0))) (let ((l65 (= |next.cx!1!5| 0))) (let ((l66 (= |next.cx!1!6| 0))) (let ((l67 (and l60 l61 l62 l63 l64 l65 l66))) (let ((l68 (or l15 l16 l67))) (let ((l69 (= |next.cx!2!0| 0))) (let ((l70 (= |next.cx!2!1| 0))) (let ((l71 (= |next.cx!2!2| 0))) (let ((l72 (= |next.cx!2!3| 0))) (let ((l73 (= |next.cx!2!4| 0))) (let ((l74 (= |next.cx!2!5| 0))) (let ((l75 (= |next.cx!2!6| 0))) (let ((l76 (and l69 l70 l71 l72 l73 l74 l75))) (let ((l77 (or l27 l28 l76))) (let ((l78 (= |next.cx!3!0| 0))) (let ((l79 (= |next.cx!3!1| 0))) (let ((l80 (= |next.cx!3!2| 0))) (let ((l81 (= |next.cx!3!3| 0))) (let ((l82 (= |next.cx!3!4| 0))) (let ((l83 (= |next.cx!3!5| 0))) (let ((l84 (= |next.cx!3!6| 0))) (let ((l85 (and l78 l79 l80 l81 l82 l83 l84))) (let ((l86 (or l39 l40 l85))) (let ((l87 (and l14 l26 l38 l50 l59 l68 l77 l86))) (let ((l88 (= |next.round| 1))) (let ((l89 (= |next.cy!0!0| |state.cy!0!0|))) (let ((l90 (= |next.cy!0!1| |state.cy!0!1|))) (let ((l91 (= |next.cy!0!2| |state.cy!0!2|))) (let ((l92 (= |next.cy!0!3| |state.cy!0!3|))) (let ((l93 (= |next.cy!0!4| |state.cy!0!4|))) (let ((l94 (= |next.cy!0!5| |state.cy!0!5|))) (let ((l95 (= |next.cy!0!6| |state.cy!0!6|))) (let ((l96 (= |next.cy!1!0| |state.cy!1!0|))) (let ((l97 (= |next.cy!1!1| |state.cy!1!1|))) (let ((l98 (= |next.cy!1!2| |state.cy!1!2|))) (let ((l99 (= |next.cy!1!3| |state.cy!1!3|))) (let ((l100 (= |next.cy!1!4| |state.cy!1!4|))) (let ((l101 (= |next.cy!1!5| |state.cy!1!5|))) (let ((l102 (= |next.cy!1!6| |state.cy!1!6|))) (let ((l103 (= |next.cy!2!0| |state.cy!2!0|))) (let ((l104 (= |next.cy!2!1| |state.cy!2!1|))) (let ((l105 (= |next.cy!2!2| |state.cy!2!2|))) (let ((l106 (= |next.cy!2!3| |state.cy!2!3|))) (let ((l107 (= |next.cy!2!4| |state.cy!2!4|))) (let ((l108 (= |next.cy!2!5| |state.cy!2!5|))) (let ((l109 (= |next.cy!2!6| |state.cy!2!6|))) (let ((l110 (= |next.cy!3!0| |state.cy!3!0|))) (let ((l111 (= |next.cy!3!1| |state.cy!3!1|))) (let ((l112 (= |next.cy!3!2| |state.cy!3!2|))) (let ((l113 (= |next.cy!3!3| |state.cy!3!3|))) (let ((l114 (= |next.cy!3!4| |state.cy!3!4|))) (let ((l115 (= |next.cy!3!5| |state.cy!3!5|))) (let ((l116 (= |next.cy!3!6| |state.cy!3!6|))) (let ((l117 (and l89 l90 l91 l92 l93 l94 l95 l96 l97 l98 l99 l100 l101 l102 l103 l104 l105 l106 l107 l108 l109 l110 l111 l112 l113 l114 l115 l116))) (let ((l118 (= |next.good_p!0| |state.good_p!0|))) (let ((l119 (= |next.good_p!1| |state.good_p!1|))) (let ((l120 (= |next.good_p!2| |state.good_p!2|))) (let ((l121 (= |next.good_p!3| |state.good_p!3|))) (let ((l122 (and l118 l119 l120 l121))) (let ((l123 (= |next.good_r!0| |state.good_r!0|))) (let ((l124 (= |next.good_r!1| |state.good_r!1|))) (let ((l125 (= |next.good_r!2| |state.good_r!2|))) (let ((l126 (= |next.good_r!3| |state.good_r!3|))) (let ((l127 (= |next.good_r!4| |state.good_r!4|))) (let ((l128 (= |next.good_r!5| |state.good_r!5|))) (let ((l129 (= |next.good_r!6| |state.good_r!6|))) (let ((l130 (and l123 l124 l125 l126 l127 l128 l129))) (let ((l131 (= |next.v!0| |state.v!0|))) (let ((l132 (= |next.v!1| |state.v!1|))) (let ((l133 (= |next.v!2| |state.v!2|))) (let ((l134 (= |next.v!3| |state.v!3|))) (let ((l135 (and l131 l132 l133 l134))) (let ((l136 (and l2 l87 l88 l117 l122 l130 l135))) (let ((l137 (= |state.round| 1))) (let ((l138 (not |state.good_r!0|))) (let ((l139 (= |state.source| 4))) (let ((l140 (= |state.source| 3))) (let ((l141 (= |state.source| 2))) (let ((l142 (ite l141 |state.cx!1!0| |state.cx!0!0|))) (let ((l143 (ite l140 |state.cx!2!0| l142))) (let ((l144 (ite l139 |state.cx!3!0| l143))) (let ((l145 (= |next.cy!0!0| l144))) (let ((l146 (or l138 l145))) (let ((l147 (= |next.cy!1!0| l144))) (let ((l148 (or l138 l147))) (let ((l149 (= |next.cy!2!0| l144))) (let ((l150 (or l138 l149))) (let ((l151 (= |next.cy!3!0| l144))) (let ((l152 (or l138 l151))) (let ((l153 (not |state.good_r!1|))) (let ((l154 (ite l141 |state.cx!1!1| |state.cx!0!1|))) (let ((l155 (ite l140 |state.cx!2!1| l154))) (let ((l156 (ite l139 |state.cx!3!1| l155))) (let ((l157 (= |next.cy!0!1| l156))) (let ((l158 (or l153 l157))) (let ((l159 (= |next.cy!1!1| l156))) (let ((l160 (or l153 l159))) (let ((l161 (= |next.cy!2!1| l156))) (let ((l162 (or l153 l161))) (let ((l163 (= |next.cy!3!1| l156))) (let ((l164 (or l153 l163))) (let ((l165 (not |state.good_r!2|))) (let ((l166 (ite l141 |state.cx!1!2| |state.cx!0!2|))) (let ((l167 (ite l140 |state.cx!2!2| l166))) (let ((l168 (ite l139 |state.cx!3!2| l167))) (let ((l169 (= |next.cy!0!2| l168))) (let ((l170 (or l165 l169))) (let ((l171 (= |next.cy!1!2| l168))) (let ((l172 (or l165 l171))) (let ((l173 (= |next.cy!2!2| l168))) (let ((l174 (or l165 l173))) (let ((l175 (= |next.cy!3!2| l168))) (let ((l176 (or l165 l175))) (let ((l177 (not |state.good_r!3|))) (let ((l178 (ite l141 |state.cx!1!3| |state.cx!0!3|))) (let ((l179 (ite l140 |state.cx!2!3| l178))) (let ((l180 (ite l139 |state.cx!3!3| l179))) (let ((l181 (= |next.cy!0!3| l180))) (let ((l182 (or l177 l181))) (let ((l183 (= |next.cy!1!3| l180))) (let ((l184 (or l177 l183))) (let ((l185 (= |next.cy!2!3| l180))) (let ((l186 (or l177 l185))) (let ((l187 (= |next.cy!3!3| l180))) (let ((l188 (or l177 l187))) (let ((l189 (not |state.good_r!4|))) (let ((l190 (ite l141 |state.cx!1!4| |state.cx!0!4|))) (let ((l191 (ite l140 |state.cx!2!4| l190))) (let ((l192 (ite l139 |state.cx!3!4| l191))) (let ((l193 (= |next.cy!0!4| l192))) (let ((l194 (or l189 l193))) (let ((l195 (= |next.cy!1!4| l192))) (let ((l196 (or l189 l195))) (let ((l197 (= |next.cy!2!4| l192))) (let ((l198 (or l189 l197))) (let ((l199 (= |next.cy!3!4| l192))) (let ((l200 (or l189 l199))) (let ((l201 (not |state.good_r!5|))) (let ((l202 (ite l141 |state.cx!1!5| |state.cx!0!5|))) (let ((l203 (ite l140 |state.cx!2!5| l202))) (let ((l204 (ite l139 |state.cx!3!5| l203))) (let ((l205 (= |next.cy!0!5| l204))) (let ((l206 (or l201 l205))) (let ((l207 (= |next.cy!1!5| l204))) (let ((l208 (or l201 l207))) (let ((l209 (= |next.cy!2!5| l204))) (let ((l210 (or l201 l209))) (let ((l211 (= |next.cy!3!5| l204))) (let ((l212 (or l201 l211))) (let ((l213 (not |state.good_r!6|))) (let ((l214 (ite l141 |state.cx!1!6| |state.cx!0!6|))) (let ((l215 (ite l140 |state.cx!2!6| l214))) (let ((l216 (ite l139 |state.cx!3!6| l215))) (let ((l217 (= |next.cy!0!6| l216))) (let ((l218 (or l213 l217))) (let ((l219 (= |next.cy!1!6| l216))) (let ((l220 (or l213 l219))) (let ((l221 (= |next.cy!2!6| l216))) (let ((l222 (or l213 l221))) (let ((l223 (= |next.cy!3!6| l216))) (let ((l224 (or l213 l223))) (let ((l225 (and l146 l148 l150 l152 l158 l160 l162 l164 l170 l172 l174 l176 l182 l184 l186 l188 l194 l196 l198 l200 l206 l208 l210 l212 l218 l220 l222 l224))) (let ((l226 (= |next.round| 2))) (let ((l227 (= |next.cx!0!0| |state.cx!0!0|))) (let ((l228 (= |next.cx!0!1| |state.cx!0!1|))) (let ((l229 (= |next.cx!0!2| |state.cx!0!2|))) (let ((l230 (= |next.cx!0!3| |state.cx!0!3|))) (let ((l231 (= |next.cx!0!4| |state.cx!0!4|))) (let ((l232 (= |next.cx!0!5| |state.cx!0!5|))) (let ((l233 (= |next.cx!0!6| |state.cx!0!6|))) (let ((l234 (= |next.cx!1!0| |state.cx!1!0|))) (let ((l235 (= |next.cx!1!1| |state.cx!1!1|))) (let ((l236 (= |next.cx!1!2| |state.cx!1!2|))) (let ((l237 (= |next.cx!1!3| |state.cx!1!3|))) (let ((l238 (= |next.cx!1!4| |state.cx!1!4|))) (let ((l239 (= |next.cx!1!5| |state.cx!1!5|))) (let ((l240 (= |next.cx!1!6| |state.cx!1!6|))) (let ((l241 (= |next.cx!2!0| |state.cx!2!0|))) (let ((l242 (= |next.cx!2!1| |state.cx!2!1|))) (let ((l243 (= |next.cx!2!2| |state.cx!2!2|))) (let ((l244 (= |next.cx!2!3| |state.cx!2!3|))) (let ((l245 (= |next.cx!2!4| |state.cx!2!4|))) (let ((l246 (= |next.cx!2!5| |state.cx!2!5|))) (let ((l247 (= |next.cx!2!6| |state.cx!2!6|))) (let ((l248 (= |next.cx!3!0| |state.cx!3!0|))) (let ((l249 (= |next.cx!3!1| |state.cx!3!1|))) (let ((l250 (= |next.cx!3!2| |state.cx!3!2|))) (let ((l251 (= |next.cx!3!3| |state.cx!3!3|))) (let ((l252 (= |next.cx!3!4| |state.cx!3!4|))) (let ((l253 (= |next.cx!3!5| |state.cx!3!5|))) (let ((l254 (= |next.cx!3!6| |state.cx!3!6|))) (let ((l255 (and l227 l228 l229 l230 l231 l232 l233 l234 l235 l236 l237 l238 l239 l240 l241 l242 l243 l244 l245 l246 l247 l248 l249 l250 l251 l252 l253 l254))) (let ((l256 (and l137 l225 l226 l255 l122 l130 l135))) (let ((l257 (= |state.round| 2))) (let ((l258 (= |state.cy!0!5| |state.cy!0!6|))) (let ((l259 (ite l258 2 0))) (let ((l260 (= l259 0))) (let ((l261 (= |state.cy!0!4| |state.cy!0!6|))) (let ((l262 (+ l259 1))) (let ((l263 (- l259 1))) (let ((l264 (ite l261 l262 l263))) (let ((l265 (ite l260 1 l264))) (let ((l266 (= l265 0))) (let ((l267 (ite l260 |state.cy!0!4| |state.cy!0!6|))) (let ((l268 (= |state.cy!0!3| l267))) (let ((l269 (+ l265 1))) (let ((l270 (- l265 1))) (let ((l271 (ite l268 l269 l270))) (let ((l272 (ite l266 1 l271))) (let ((l273 (= l272 0))) (let ((l274 (ite l266 |state.cy!0!3| l267))) (let ((l275 (= |state.cy!0!2| l274))) (let ((l276 (+ l272 1))) (let ((l277 (- l272 1))) (let ((l278 (ite l275 l276 l277))) (let ((l279 (ite l273 1 l278))) (let ((l280 (= l279 0))) (let ((l281 (ite l273 |state.cy!0!2| l274))) (let ((l282 (= |state.cy!0!1| l281))) (let ((l283 (+ l279 1))) (let ((l284 (- l279 1))) (let ((l285 (ite l282 l283 l284))) (let ((l286 (ite l280 1 l285))) (let ((l287 (= l286 0))) (let ((l288 (ite l280 |state.cy!0!1| l281))) (let ((l289 (ite l287 |state.cy!0!0| l288))) (let ((l290 (= |state.cy!0!6| l289))) (let ((l291 (ite l290 3 4))) (let ((l292 (= l291 0))) (let ((l293 (= |state.cy!0!5| l289))) (let ((l294 (- l291 1))) (let ((l295 (ite l293 l294 l291))) (let ((l296 (= l295 0))) (let ((l297 (= |state.cy!0!4| l289))) (let ((l298 (- l295 1))) (let ((l299 (ite l297 l298 l295))) (let ((l300 (= l299 0))) (let ((l301 (= |state.cy!0!3| l289))) (let ((l302 (- l299 1))) (let ((l303 (ite l301 l302 l299))) (let ((l304 (= l303 0))) (let ((l305 (= |state.cy!0!2| l289))) (let ((l306 (- l303 1))) (let ((l307 (ite l305 l306 l303))) (let ((l308 (= l307 0))) (let ((l309 (= |state.cy!0!1| l289))) (let ((l310 (- l307 1))) (let ((l311 (ite l309 l310 l307))) (let ((l312 (= l311 0))) (let ((l313 (= |state.cy!0!0| l289))) (let ((l314 (- l311 1))) (let ((l315 (ite l313 l314 l311))) (let ((l316 (= l315 0))) (let ((l317 (or l292 l296 l300 l304 l308 l312 l316))) (let ((l318 (ite l317 l289 0))) (let ((l319 (= |next.v!0| l318))) (let ((l320 (or l3 l319))) (let ((l321 (= |state.cy!1!5| |state.cy!1!6|))) (let ((l322 (ite l321 2 0))) (let ((l323 (= l322 0))) (let ((l324 (= |state.cy!1!4| |state.cy!1!6|))) (let ((l325 (+ l322 1))) (let ((l326 (- l322 1))) (let ((l327 (ite l324 l325 l326))) (let ((l328 (ite l323 1 l327))) (let ((l329 (= l328 0))) (let ((l330 (ite l323 |state.cy!1!4| |state.cy!1!6|))) (let ((l331 (= |state.cy!1!3| l330))) (let ((l332 (+ l328 1))) (let ((l333 (- l328 1))) (let ((l334 (ite l331 l332 l333))) (let ((l335 (ite l329 1 l334))) (let ((l336 (= l335 0))) (let ((l337 (ite l329 |state.cy!1!3| l330))) (let ((l338 (= |state.cy!1!2| l337))) (let ((l339 (+ l335 1))) (let ((l340 (- l335 1))) (let ((l341 (ite l338 l339 l340))) (let ((l342 (ite l336 1 l341))) (let ((l343 (= l342 0))) (let ((l344 (ite l336 |state.cy!1!2| l337))) (let ((l345 (= |state.cy!1!1| l344))) (let ((l346 (+ l342 1))) (let ((l347 (- l342 1))) (let ((l348 (ite l345 l346 l347))) (let ((l349 (ite l343 1 l348))) (let ((l350 (= l349 0))) (let ((l351 (ite l343 |state.cy!1!1| l344))) (let ((l352 (ite l350 |state.cy!1!0| l351))) (let ((l353 (= |state.cy!1!6| l352))) (let ((l354 (ite l353 3 4))) (let ((l355 (= l354 0))) (let ((l356 (= |state.cy!1!5| l352))) (let ((l357 (- l354 1))) (let ((l358 (ite l356 l357 l354))) (let ((l359 (= l358 0))) (let ((l360 (= |state.cy!1!4| l352))) (let ((l361 (- l358 1))) (let ((l362 (ite l360 l361 l358))) (let ((l363 (= l362 0))) (let ((l364 (= |state.cy!1!3| l352))) (let ((l365 (- l362 1))) (let ((l366 (ite l364 l365 l362))) (let ((l367 (= l366 0))) (let ((l368 (= |state.cy!1!2| l352))) (let ((l369 (- l366 1))) (let ((l370 (ite l368 l369 l366))) (let ((l371 (= l370 0))) (let ((l372 (= |state.cy!1!1| l352))) (let ((l373 (- l370 1))) (let ((l374 (ite l372 l373 l370))) (let ((l375 (= l374 0))) (let ((l376 (= |state.cy!1!0| l352))) (let ((l377 (- l374 1))) (let ((l378 (ite l376 l377 l374))) (let ((l379 (= l378 0))) (let ((l380 (or l355 l359 l363 l367 l371 l375 l379))) (let ((l381 (ite l380 l352 0))) (let ((l382 (= |next.v!1| l381))) (let ((l383 (or l15 l382))) (let ((l384 (= |state.cy!2!5| |state.cy!2!6|))) (let ((l385 (ite l384 2 0))) (let ((l386 (= l385 0))) (let ((l387 (= |state.cy!2!4| |state.cy!2!6|))) (let ((l388 (+ l385 1))) (let ((l389 (- l385 1))) (let ((l390 (ite l387 l388 l389))) (let ((l391 (ite l386 1 l390))) (let ((l392 (= l391 0))) (let ((l393 (ite l386 |state.cy!2!4| |state.cy!2!6|))) (let ((l394 (= |state.cy!2!3| l393))) (let ((l395 (+ l391 1))) (let ((l396 (- l391 1))) (let ((l397 (ite l394 l395 l396))) (let ((l398 (ite l392 1 l397))) (let ((l399 (= l398 0))) (let ((l400 (ite l392 |state.cy!2!3| l393))) (let ((l401 (= |state.cy!2!2| l400))) (let ((l402 (+ l398 1))) (let ((l403 (- l398 1))) (let ((l404 (ite l401 l402 l403))) (let ((l405 (ite l399 1 l404))) (let ((l406 (= l405 0))) (let ((l407 (ite l399 |state.cy!2!2| l400))) (let ((l408 (= |state.cy!2!1| l407))) (let ((l409 (+ l405 1))) (let ((l410 (- l405 1))) (let ((l411 (ite l408 l409 l410))) (let ((l412 (ite l406 1 l411))) (let ((l413 (= l412 0))) (let ((l414 (ite l406 |state.cy!2!1| l407))) (let ((l415 (ite l413 |state.cy!2!0| l414))) (let ((l416 (= |state.cy!2!6| l415))) (let ((l417 (ite l416 3 4))) (let ((l418 (= l417 0))) (let ((l419 (= |state.cy!2!5| l415))) (let ((l420 (- l417 1))) (let ((l421 (ite l419 l420 l417))) (let ((l422 (= l421 0))) (let ((l423 (= |state.cy!2!4| l415))) (let ((l424 (- l421 1))) (let ((l425 (ite l423 l424 l421))) (let ((l426 (= l425 0))) (let ((l427 (= |state.cy!2!3| l415))) (let ((l428 (- l425 1))) (let ((l429 (ite l427 l428 l425))) (let ((l430 (= l429 0))) (let ((l431 (= |state.cy!2!2| l415))) (let ((l432 (- l429 1))) (let ((l433 (ite l431 l432 l429))) (let ((l434 (= l433 0))) (let ((l435 (= |state.cy!2!1| l415))) (let ((l436 (- l433 1))) (let ((l437 (ite l435 l436 l433))) (let ((l438 (= l437 0))) (let ((l439 (= |state.cy!2!0| l415))) (let ((l440 (- l437 1))) (let ((l441 (ite l439 l440 l437))) (let ((l442 (= l441 0))) (let ((l443 (or l418 l422 l426 l430 l434 l438 l442))) (let ((l444 (ite l443 l415 0))) (let ((l445 (= |next.v!2| l444))) (let ((l446 (or l27 l445))) (let ((l447 (= |state.cy!3!5| |state.cy!3!6|))) (let ((l448 (ite l447 2 0))) (let ((l449 (= l448 0))) (let ((l450 (= |state.cy!3!4| |state.cy!3!6|))) (let ((l451 (+ l448 1))) (let ((l452 (- l448 1))) (let ((l453 (ite l450 l451 l452))) (let ((l454 (ite l449 1 l453))) (let ((l455 (= l454 0))) (let ((l456 (ite l449 |state.cy!3!4| |state.cy!3!6|))) (let ((l457 (= |state.cy!3!3| l456))) (let ((l458 (+ l454 1))) (let ((l459 (- l454 1))) (let ((l460 (ite l457 l458 l459))) (let ((l461 (ite l455 1 l460))) (let ((l462 (= l461 0))) (let ((l463 (ite l455 |state.cy!3!3| l456))) (let ((l464 (= |state.cy!3!2| l463))) (let ((l465 (+ l461 1))) (let ((l466 (- l461 1))) (let ((l467 (ite l464 l465 l466))) (let ((l468 (ite l462 1 l467))) (let ((l469 (= l468 0))) (let ((l470 (ite l462 |state.cy!3!2| l463))) (let ((l471 (= |state.cy!3!1| l470))) (let ((l472 (+ l468 1))) (let ((l473 (- l468 1))) (let ((l474 (ite l471 l472 l473))) (let ((l475 (ite l469 1 l474))) (let ((l476 (= l475 0))) (let ((l477 (ite l469 |state.cy!3!1| l470))) (let ((l478 (ite l476 |state.cy!3!0| l477))) (let ((l479 (= |state.cy!3!6| l478))) (let ((l480 (ite l479 3 4))) (let ((l481 (= l480 0))) (let ((l482 (= |state.cy!3!5| l478))) (let ((l483 (- l480 1))) (let ((l484 (ite l482 l483 l480))) (let ((l485 (= l484 0))) (let ((l486 (= |state.cy!3!4| l478))) (let ((l487 (- l484 1))) (let ((l488 (ite l486 l487 l484))) (let ((l489 (= l488 0))) (let ((l490 (= |state.cy!3!3| l478))) (let ((l491 (- l488 1))) (let ((l492 (ite l490 l491 l488))) (let ((l493 (= l492 0))) (let ((l494 (= |state.cy!3!2| l478))) (let ((l495 (- l492 1))) (let ((l496 (ite l494 l495 l492))) (let ((l497 (= l496 0))) (let ((l498 (= |state.cy!3!1| l478))) (let ((l499 (- l496 1))) (let ((l500 (ite l498 l499 l496))) (let ((l501 (= l500 0))) (let ((l502 (= |state.cy!3!0| l478))) (let ((l503 (- l500 1))) (let ((l504 (ite l502 l503 l500))) (let ((l505 (= l504 0))) (let ((l506 (or l481 l485 l489 l493 l497 l501 l505))) (let ((l507 (ite l506 l478 0))) (let ((l508 (= |next.v!3| l507))) (let ((l509 (or l39 l508))) (let ((l510 (and l320 l383 l446 l509))) (let ((l511 (= |next.round| 3))) (let ((l512 (and l257 l510 l511 l255 l117 l122 l130))) (let ((l513 (= |state.round| 3))) (let ((l514 (= |next.round| |state.round|))) (let ((l515 (and l513 l255 l117 l122 l130 l514 l135))) (let ((l516 (or l136 l256 l512 l515))) (let ((l517 (and l0 l1 l516))) l517))))))))))))))))))))))))))))))))))))))))))))))))))))))))))))))))))))))))))))))))))))))))))))))))))))))))))))))))))))))))))))))))))))))))))))))))))))))))))))))))))))))))))))))))))))))))))))))))))))))))))))))))))))))))))))))))))))))))))))))))))))))))))))))))))))))))))))))))))))))))))))))))))))))))))))))))))))))))))))))))))))))))))))))))))))))))))))))))))))))))))))))))))))))))))))))))))))))))))))))))))))))))))))))))))))))))))))))))))))))))))))))))))))))))))))))))))))))))))))))))))))))))))))))))))))))))))))))))))))))
        )
        (invariant next.cx!0!0 next.cx!0!1 next.cx!0!2 next.cx!0!3 next.cx!0!4 next.cx!0!5 next.cx!0!6 next.cx!1!0 next.cx!1!1 next.cx!1!2 next.cx!1!3 next.cx!1!4 next.cx!1!5 next.cx!1!6 next.cx!2!0 next.cx!2!1 next.cx!2!2 next.cx!2!3 next.cx!2!4 next.cx!2!5 next.cx!2!6 next.cx!3!0 next.cx!3!1 next.cx!3!2 next.cx!3!3 next.cx!3!4 next.cx!3!5 next.cx!3!6 next.cy!0!0 next.cy!0!1 next.cy!0!2 next.cy!0!3 next.cy!0!4 next.cy!0!5 next.cy!0!6 next.cy!1!0 next.cy!1!1 next.cy!1!2 next.cy!1!3 next.cy!1!4 next.cy!1!5 next.cy!1!6 next.cy!2!0 next.cy!2!1 next.cy!2!2 next.cy!2!3 next.cy!2!4 next.cy!2!5 next.cy!2!6 next.cy!3!0 next.cy!3!1 next.cy!3!2 next.cy!3!3 next.cy!3!4 next.cy!3!5 next.cy!3!6 next.good_p!0 next.good_p!1 next.good_p!2 next.good_p!3 next.good_r!0 next.good_r!1 next.good_r!2 next.good_r!3 next.good_r!4 next.good_r!5 next.good_r!6 next.v!0 next.v!1 next.v!2 next.v!3 next.round next.source next.val)
    )
  )
)

;; Property
(assert
  (forall ((state.cx!0!0 Real) (state.cx!0!1 Real) (state.cx!0!2 Real) (state.cx!0!3 Real) (state.cx!0!4 Real) (state.cx!0!5 Real) (state.cx!0!6 Real) (state.cx!1!0 Real) (state.cx!1!1 Real) (state.cx!1!2 Real) (state.cx!1!3 Real) (state.cx!1!4 Real) (state.cx!1!5 Real) (state.cx!1!6 Real) (state.cx!2!0 Real) (state.cx!2!1 Real) (state.cx!2!2 Real) (state.cx!2!3 Real) (state.cx!2!4 Real) (state.cx!2!5 Real) (state.cx!2!6 Real) (state.cx!3!0 Real) (state.cx!3!1 Real) (state.cx!3!2 Real) (state.cx!3!3 Real) (state.cx!3!4 Real) (state.cx!3!5 Real) (state.cx!3!6 Real) (state.cy!0!0 Real) (state.cy!0!1 Real) (state.cy!0!2 Real) (state.cy!0!3 Real) (state.cy!0!4 Real) (state.cy!0!5 Real) (state.cy!0!6 Real) (state.cy!1!0 Real) (state.cy!1!1 Real) (state.cy!1!2 Real) (state.cy!1!3 Real) (state.cy!1!4 Real) (state.cy!1!5 Real) (state.cy!1!6 Real) (state.cy!2!0 Real) (state.cy!2!1 Real) (state.cy!2!2 Real) (state.cy!2!3 Real) (state.cy!2!4 Real) (state.cy!2!5 Real) (state.cy!2!6 Real) (state.cy!3!0 Real) (state.cy!3!1 Real) (state.cy!3!2 Real) (state.cy!3!3 Real) (state.cy!3!4 Real) (state.cy!3!5 Real) (state.cy!3!6 Real) (state.good_p!0 Bool) (state.good_p!1 Bool) (state.good_p!2 Bool) (state.good_p!3 Bool) (state.good_r!0 Bool) (state.good_r!1 Bool) (state.good_r!2 Bool) (state.good_r!3 Bool) (state.good_r!4 Bool) (state.good_r!5 Bool) (state.good_r!6 Bool) (state.v!0 Real) (state.v!1 Real) (state.v!2 Real) (state.v!3 Real) (state.round Real) (state.source Real) (state.val Real))
    (=> (invariant state.cx!0!0 state.cx!0!1 state.cx!0!2 state.cx!0!3 state.cx!0!4 state.cx!0!5 state.cx!0!6 state.cx!1!0 state.cx!1!1 state.cx!1!2 state.cx!1!3 state.cx!1!4 state.cx!1!5 state.cx!1!6 state.cx!2!0 state.cx!2!1 state.cx!2!2 state.cx!2!3 state.cx!2!4 state.cx!2!5 state.cx!2!6 state.cx!3!0 state.cx!3!1 state.cx!3!2 state.cx!3!3 state.cx!3!4 state.cx!3!5 state.cx!3!6 state.cy!0!0 state.cy!0!1 state.cy!0!2 state.cy!0!3 state.cy!0!4 state.cy!0!5 state.cy!0!6 state.cy!1!0 state.cy!1!1 state.cy!1!2 state.cy!1!3 state.cy!1!4 state.cy!1!5 state.cy!1!6 state.cy!2!0 state.cy!2!1 state.cy!2!2 state.cy!2!3 state.cy!2!4 state.cy!2!5 state.cy!2!6 state.cy!3!0 state.cy!3!1 state.cy!3!2 state.cy!3!3 state.cy!3!4 state.cy!3!5 state.cy!3!6 state.good_p!0 state.good_p!1 state.good_p!2 state.good_p!3 state.good_r!0 state.good_r!1 state.good_r!2 state.good_r!3 state.good_r!4 state.good_r!5 state.good_r!6 state.v!0 state.v!1 state.v!2 state.v!3 state.round state.source state.val)
        (let ((l0 (< |state.round| 3))) (let ((l1 (not |state.good_p!0|))) (let ((l2 (not |state.good_p!1|))) (let ((l3 (= |state.v!0| |state.v!1|))) (let ((l4 (or l2 l3))) (let ((l5 (not |state.good_p!2|))) (let ((l6 (= |state.v!0| |state.v!2|))) (let ((l7 (or l5 l6))) (let ((l8 (not |state.good_p!3|))) (let ((l9 (= |state.v!0| |state.v!3|))) (let ((l10 (or l8 l9))) (let ((l11 (and l4 l7 l10))) (let ((l12 (or l1 l11))) (let ((l13 (= |state.v!1| |state.v!0|))) (let ((l14 (or l1 l13))) (let ((l15 (= |state.v!1| |state.v!2|))) (let ((l16 (or l5 l15))) (let ((l17 (= |state.v!1| |state.v!3|))) (let ((l18 (or l8 l17))) (let ((l19 (and l14 l16 l18))) (let ((l20 (or l2 l19))) (let ((l21 (= |state.v!2| |state.v!0|))) (let ((l22 (or l1 l21))) (let ((l23 (= |state.v!2| |state.v!1|))) (let ((l24 (or l2 l23))) (let ((l25 (= |state.v!2| |state.v!3|))) (let ((l26 (or l8 l25))) (let ((l27 (and l22 l24 l26))) (let ((l28 (or l5 l27))) (let ((l29 (= |state.v!3| |state.v!0|))) (let ((l30 (or l1 l29))) (let ((l31 (= |state.v!3| |state.v!1|))) (let ((l32 (or l2 l31))) (let ((l33 (= |state.v!3| |state.v!2|))) (let ((l34 (or l5 l33))) (let ((l35 (and l30 l32 l34))) (let ((l36 (or l8 l35))) (let ((l37 (and l12 l20 l28 l36))) (let ((l38 (or l0 l37))) l38)))))))))))))))))))))))))))))))))))))))
    )
  )
)

;; Check the property
(check-sat)
